1 2.45 8.32  
2 5.67 3.21  
3 1.23 6.78  
4 7.89 2.34  
5 3.45 9.87  
6 6.12 4.56  
7 4.98 7.43  
8 9.87 1.25  
9 2.56 5.43  
10 8.34 3.67  
11 1.76 2.98  
12 7.65 8.23  
13 3.87 4.12  
14 5.43 6.78  
15 6.98 9.01  
16 2.34 7.56  
17 8.12 5.67  
18 4.21 1.98  
19 9.45 6.12  
20 3.67 8.45  
21 6.54 2.76  
22 7.32 4.98  
23 2.12 3.67  
24 5.98 9.34  
25 4.32 5.12  
26 3.14 6.45  
27 7.89 7.65  
28 8.76 3.21  
29 2.98 9.12  
30 5.67 7.89 